WARNING: for repeatability, setting FPU to use double precision
============================[ Problem Statistics ]=============================
|                                                                             |
|  Number of variables:        120049                                         |
|  Number of clauses:         2220651                                         |
|  Parse time:                   0.73 s                                       |
|  Eliminated clauses:           0.07 Mb                                      |
|  Simplification time:          1.04 s                                       |
|                                                                             |
============================[ Search Statistics ]==============================
| Conflicts |          ORIGINAL         |          LEARNT          | Progress |
|           |    Vars  Clauses Literals |    Limit  Clauses Lit/Cl |          |
===============================================================================
|       100 |   10486   168168   488860 |    61661      100     40 | 88.406 % |
|       250 |   10486   168168   488860 |    67827      250     41 | 88.406 % |
|       475 |   10486   168168   488860 |    74610      475     45 | 88.406 % |
|       812 |   10486   168168   488860 |    82071      812     42 | 88.406 % |
|      1318 |   10486   168168   488860 |    90278     1318     48 | 88.406 % |
|      2077 |   10486   168168   488860 |    99306     2077     49 | 88.406 % |
|      3216 |   10486   168168   488860 |   109237     3216     54 | 88.406 % |
|      4924 |   10486   168168   488860 |   120161     4924     56 | 88.406 % |
|      7486 |   10486   168168   488860 |   132177     7486     58 | 88.406 % |
|     11330 |   10486   168168   488860 |   145394    11330     58 | 88.406 % |
|     17096 |   10486   168168   488860 |   159934    17096     60 | 88.406 % |
|     25745 |   10486   168168   488860 |   175927    25745     61 | 88.406 % |
|     38719 |   10486   168168   488860 |   193520    38719     65 | 88.406 % |
|     58180 |   10486   168168   488860 |   212872    58180     65 | 88.406 % |
|     87372 |   10486   168168   488860 |   234159    87372     67 | 88.406 % |
|    131161 |   10486   168168   488860 |   257575   131161     68 | 88.406 % |
|    196845 |   10486   168168   488860 |   283333   196845     72 | 88.406 % |
|    295371 |   10486   168168   488860 |   311666   295371     71 | 88.406 % |
|    443160 |   10486   168168   488860 |   342833    34117    113 | 88.406 % |
|    664843 |   10486   168168   488860 |   377116   255800     84 | 88.406 % |
|    997368 |   10486   168168   488860 |   414828   119074     81 | 88.406 % |
|   1496156 |   10486   168168   488860 |   456311   106606     69 | 88.406 % |
|   2244338 |   10486   168168   488860 |   501942   303659     74 | 88.406 % |
|   3366612 |   10486   168168   488860 |   552136   236769     77 | 88.406 % |
|   5050023 |   10486   168168   488860 |   607350   626115     94 | 88.406 % |
|   7575139 |   10486   168168   488860 |   668085   356501     69 | 88.406 % |
|  11362814 |   10486   168168   488860 |   734893   319919     89 | 88.406 % |
|  17044326 |   10486   168168   488860 |   808383   213595     74 | 88.406 % |
|  25566595 |   10486   168168   488860 |   889221   619959     78 | 88.406 % |
|  38349998 |   10486   168168   488860 |   978143   645129     84 | 88.406 % |
|  57525103 |   10486   168168   488860 |  1075958   558852    126 | 88.406 % |
|  86287761 |   10486   168168   488860 |  1183553    95032     76 | 88.406 % |
| 129431749 |   10486   168168   488860 |  1301909  1208400     89 | 88.406 % |
===============================================================================
restarts              : 196604
conflicts             : 158831679      (8092 /sec)
decisions             : 657656427      (0.00 % random) (33505 /sec)
propagations          : 10099649621    (514533 /sec)
conflict literals     : 16920002109    (8.69 % deleted)
Memory used           : 5150.00 MB
CPU time              : 19628.8 s

SATISFIABLE
